500
1000
209
208
208
208
208
208
208
207
205
203
203
203
202
201
201
201
201
200
200
200
200
200
200
199
198
198
198
197
197
197
197
196
196
196
195
195
194
194
194
193
192
192
192
191
191
191
191
190
190
190
189
188
188
188
186
186
184
184
183
182
182
181
181
181
181
180
179
179
178
178
177
177
176
175
174
174
174
174
173
173
173
173
173
172
172
171
171
171
170
170
170
170
170
169
168
168
168
167
167
165
165
164
164
164
163
163
163
163
162
162
161
161
160
159
159
158
157
157
157
157
157
157
156
156
156
156
155
155
152
152
152
152
151
150
150
150
149
149
147
147
147
146
145
144
144
144
144
144
143
143
143
142
142
141
141
141
141
141
140
138
138
138
136
135
135
135
135
135
135
133
133
133
133
133
132
132
132
131
131
131
130
130
130
130
129
129
129
128
128
127
126
125
125
125
125
124
124
124
124
124
124
124
123
123
123
122
122
122
122
122
122
122
121
121
121
120
120
120
120
119
119
119
119
118
117
117
117
117
116
116
116
116
115
114
114
114
114
113
113
113
113
113
113
111
111
110
109
107
107
106
105
105
105
104
104
104
103
103
102
102
102
101
101
100
99
99
98
98
98
98
97
97
97
97
96
96
96
96
96
96
96
96
95
95
95
94
93
93
92
92
91
91
91
91
90
89
89
88
88
87
87
87
87
86
86
86
86
85
84
84
84
83
83
83
81
81
81
81
81
80
80
80
80
80
79
79
79
79
78
78
78
78
77
77
77
76
76
76
75
74
74
74
73
73
73
73
73
73
70
70
70
70
70
70
68
68
67
67
66
66
66
66
65
65
65
65
65
64
64
64
64
63
62
61
61
60
60
59
58
57
57
56
56
56
55
54
54
53
53
52
52
52
52
52
51
51
50
50
49
49
49
49
49
48
48
48
47
47
46
45
45
45
45
44
43
43
42
42
41
41
41
41
41
41
40
40
40
40
39
39
39
38
37
37
36
36
36
36
36
35
34
34
34
33
33
32
32
32
32
32
31
31
31
30
29
28
27
27
27
27
26
25
25
25
24
23
23
23
22
22
22
21
21
21
20
19
19
19
19
18
18
18
18
17
17
17
17
16
16
16
15
15
14
14
14
14
14
13
13
13
